
461
1000
   800      2
   799      2
   797      1
   796      2
   795      1
   794      3
   793      1
   786      1
   785      1
   784      3
   783      1
   782      4
   781      1
   780      1
   779      1
   777      1
   776      3
   775      2
   774      1
   772      3
   770      4
   769      2
   768      1
   767      1
   766      1
   763      2
   761      1
   760      1
   758      1
   757      1
   755      1
   752      1
   751      1
   750      1
   749      1
   747      1
   746      1
   743      2
   741      2
   739      1
   737      1
   736      2
   735      3
   733      1
   729      1
   728      2
   727      1
   726      2
   724      1
   723      3
   722      3
   719      1
   718      1
   716      1
   715      4
   714      1
   713      1
   711      1
   710      2
   708      1
   707      2
   706      1
   705      2
   704      2
   703      1
   702      1
   701      1
   699      1
   698      3
   697      2
   693      1
   692      1
   691      1
   690      3
   689      3
   688      2
   687      1
   686      1
   684      1
   683      1
   681      3
   680      3
   678      1
   676      1
   674      2
   673      1
   670      1
   667      2
   666      2
   665      1
   664      1
   663      1
   658      1
   657      3
   654      1
   653      1
   652      1
   651      1
   650      1
   648      3
   647      1
   646      1
   645      3
   644      1
   643      1
   642      2
   640      2
   639      1
   638      2
   637      2
   636      1
   634      1
   633      1
   631      3
   629      1
   628      1
   627      3
   626      2
   624      1
   622      2
   620      1
   618      1
   616      2
   614      1
   613      2
   612      2
   611      3
   610      1
   604      1
   603      2
   601      2
   600      1
   599      3
   597      1
   594      2
   592      2
   589      3
   588      2
   587      1
   586      1
   585      1
   583      2
   581      1
   579      4
   578      1
   571      2
   570      1
   568      1
   567      2
   566      2
   565      2
   564      1
   563      1
   562      2
   561      1
   560      1
   555      1
   553      1
   552      1
   551      2
   550      1
   549      1
   548      1
   547      1
   546      1
   545      1
   544      1
   543      2
   540      1
   539      1
   538      2
   536      1
   534      2
   533      2
   531      2
   530      1
   528      1
   527      1
   525      1
   524      2
   523      3
   522      4
   521      1
   520      1
   517      1
   516      1
   514      4
   512      1
   511      1
   510      1
   509      2
   508      1
   507      1
   506      1
   505      4
   504      2
   502      1
   501      1
   499      1
   498      3
   497      1
   495      2
   493      1
   492      1
   490      1
   488      2
   487      3
   486      1
   483      1
   481      1
   480      3
   478      4
   477      1
   476      1
   473      1
   472      1
   471      1
   469      1
   467      2
   466      2
   465      2
   460      2
   459      1
   458      1
   456      2
   455      1
   454      3
   452      3
   451      3
   450      4
   449      1
   448      2
   447      1
   446      2
   445      2
   444      1
   443      1
   441      1
   440      1
   439      3
   437      1
   436      1
   432      1
   431      3
   428      1
   426      3
   425      1
   424      1
   421      1
   420      3
   419      1
   417      1
   416      2
   413      1
   412      1
   411      3
   407      1
   404      1
   403      1
   402      2
   401      4
   400      1
   398      1
   397      1
   393      1
   392      1
   391      1
   388      1
   386      4
   385      1
   384      1
   381      3
   380      1
   379      2
   376      2
   374      1
   372      1
   369      4
   368      2
   367      3
   366      2
   365      1
   364      1
   360      1
   358      1
   357      1
   356      2
   354      1
   353      2
   352      2
   351      2
   350      2
   349      1
   348      3
   347      1
   346      2
   345      1
   343      4
   342      1
   341      1
   339      1
   338      4
   336      2
   335      2
   332      3
   331      1
   330      3
   329      1
   328      1
   327      1
   326      1
   325      1
   324      2
   323      1
   322      1
   321      3
   320      1
   317      2
   316      2
   315      2
   312      2
   310      4
   307      2
   305      1
   304      1
   303      1
   302      5
   300      1
   299      3
   297      1
   295      1
   294      2
   291      2
   288      3
   287      2
   286      1
   285      1
   284      2
   283      1
   282      1
   281      1
   280      2
   279      1
   277      4
   276      1
   275      3
   273      2
   272      2
   269      4
   268      2
   267      3
   266      1
   265      2
   262      2
   261      2
   259      2
   258      1
   257      1
   256      2
   254      2
   253      1
   252      1
   251      2
   248      2
   247      1
   246      1
   244      3
   243      1
   242      1
   240      1
   237      1
   236      2
   235      1
   234      2
   233      1
   232      1
   231      2
   229      2
   226      2
   225      3
   224      1
   223      2
   221      1
   219      4
   216      1
   215      2
   214      2
   213      1
   212      3
   211      1
   210      1
   209      2
   208      1
   207      2
   206      1
   204      1
   202      2
   201      2
   200      1
   199      1
   198      1
   197      1
   196      1
   195      3
   194      4
   193      1
   191      1
   188      2
   186      2
   183      2
   182      2
   181      2
   179      2
   178      1
   177      1
   176      1
   175      3
   174      1
   172      3
   171      1
   170      1
   168      1
   167      1
   165      1
   163      2
   161      2
   160      1
   158      3
   157      3
   156      1
   155      1
   154      1
   151      1
   149      2
   148      3
   146      1
   145      3
   143      1
   142      1
   141      1
   140      1
   137      1
   136      3
   135      1
   132      2
   131      2
   129      1
   127      1
   126      2
   124      2
   123      1
   122      1
   120      2
   115      1
   114      2
   113      1
   111      1
   108      1
   103      1
   102      1
   101      1




The initial LP solution: time=1.96


File: BPP_750_1000_0.1_0.8_7.txt  Instance No. 1
Wed Feb 25 13:52:20 2015

LP solution: lpval=335.1461928934012 lpbnd=336

1: 0:1 398:1 obj 1\\
1: 0:1 399:1 obj 1\\
2: 1:1 397:1 obj 1\\
1: 2:1 396:1 obj 1\\
1: 3:1 395:1 obj 1\\
1: 3:1 396:1 obj 1\\
1: 4:1 458:1 459:1 obj 1\\
1: 5:1 394:1 obj 1\\
1: 5:1 400:1 obj 1\\
1: 5:1 401:1 obj 1\\
1: 6:1 393:1 obj 1\\
1: 9:1 384:1 obj 1\\
2: 9:1 385:1 obj 1\\
1: 10:1 386:1 obj 1\\
1: 11:1 387:1 obj 1\\
2: 11:1 388:1 obj 1\\
1: 12:1 383:1 obj 1\\
1: 13:1 383:1 obj 1\\
1: 14:1 382:1 obj 1\\
1: 16:1 380:1 obj 1\\
2: 16:1 381:1 obj 1\\
2: 17:1 379:1 obj 1\\
2: 20:1 377:1 obj 1\\
2: 21:1 376:1 obj 1\\
1: 22:1 375:1 obj 1\\
1: 23:1 374:1 obj 1\\
1: 24:1 373:1 obj 1\\
1: 25:1 370:1 obj 1\\
1: 25:1 371:1 obj 1\\
1: 26:1 371:1 obj 1\\
1: 27:1 369:1 obj 1\\
1: 28:1 368:1 obj 1\\
1: 29:1 367:1 obj 1\\
1: 30:1 366:1 obj 1\\
1: 31:1 363:1 obj 1\\
1: 32:1 364:1 obj 1\\
1: 34:1 362:1 obj 1\\
1: 35:1 360:1 obj 1\\
1: 36:1 359:1 obj 1\\
1: 37:1 357:1 obj 1\\
1: 37:1 358:1 obj 1\\
2: 38:1 355:1 obj 1\\
1: 39:1 354:1 obj 1\\
1: 40:1 353:1 obj 1\\
1: 41:1 353:1 obj 1\\
2: 42:1 352:1 obj 1\\
1: 43:1 350:1 obj 1\\
1: 44:1 348:1 obj 1\\
1: 45:1 347:1 obj 1\\
2: 47:1 346:1 obj 1\\
1: 48:1 344:1 obj 1\\
1: 49:1 343:1 obj 1\\
3: 50:1 343:1 obj 1\\
1: 51:1 340:1 obj 1\\
1: 52:1 339:1 obj 1\\
1: 53:1 337:1 obj 1\\
1: 54:1 336:1 obj 1\\
1: 54:1 337:1 obj 1\\
1: 55:1 335:1 obj 1\\
1: 56:1 334:1 obj 1\\
1: 57:1 333:1 obj 1\\
2: 58:1 333:1 obj 1\\
1: 59:1 332:1 obj 1\\
0.5054858134830174: 60:1 410:1 456:1 obj 1\\
1: 61:1 331:1 obj 1\\
1: 62:1 330:1 obj 1\\
1: 62:1 331:1 obj 1\\
0.07529948563110667: 63:1 415:1 452:1 obj 1\\
1: 64:1 329:1 obj 1\\
1: 66:1 328:1 obj 1\\
1: 67:1 327:1 obj 1\\
3: 68:1 326:1 obj 1\\
1: 69:1 325:1 obj 1\\
1: 70:1 322:1 obj 1\\
1: 71:1 323:1 obj 1\\
3: 73:1 321:1 obj 1\\
1: 74:1 321:1 obj 1\\
2: 75:1 320:1 obj 1\\
1: 78:1 318:1 obj 1\\
1: 79:1 317:1 obj 1\\
1.603630753158094: 80:1 319:1 obj 1\\
1: 81:1 316:1 obj 1\\
1: 82:1 314:1 obj 1\\
1: 83:1 312:1 obj 1\\
1: 84:1 310:1 obj 1\\
1: 85:1 309:1 obj 1\\
1: 86:1 306:1 obj 1\\
2: 87:1 304:1 obj 1\\
1: 88:1 305:1 obj 1\\
1: 89:1 303:1 obj 1\\
1: 90:1 302:1 obj 1\\
1: 91:1 302:1 obj 1\\
1: 92:1 298:1 obj 1\\
3: 93:1 297:1 obj 1\\
1: 94:1 295:1 obj 1\\
1: 95:1 294:1 obj 1\\
1: 96:1 293:1 obj 1\\
1: 97:1 292:1 obj 1\\
1: 98:1 291:1 obj 1\\
2: 99:1 289:1 obj 1\\
1: 99:1 290:1 obj 1\\
1: 100:1 288:1 obj 1\\
1: 101:1 287:1 obj 1\\
1: 102:1 288:1 obj 1\\
1: 102:1 290:1 obj 1\\
0.1676815198330552: 102:1 291:1 obj 1\\
1: 103:1 286:1 obj 1\\
1: 104:1 285:1 obj 1\\
1: 105:1 284:1 obj 1\\
1: 106:1 283:1 obj 1\\
0.09814493967507709: 108:1 392:1 431:1 obj 1\\
0.1803599043687394: 109:1 393:1 429:1 obj 1\\
0.4396570273628342: 109:1 402:1 422:1 obj 1\\
1: 110:1 282:1 obj 1\\
1: 111:1 280:1 obj 1\\
1: 112:1 279:1 obj 1\\
3: 113:1 277:1 obj 1\\
0.5603429726371658: 114:1 278:1 obj 1\\
1: 115:1 276:1 obj 1\\
0.7727568739190159: 116:1 390:1 424:1 obj 1\\
1: 117:1 275:1 obj 1\\
1: 118:1 274:1 obj 1\\
0.5181260716018607: 119:1 372:1 437:1 obj 1\\
1: 120:1 272:1 obj 1\\
1: 121:1 271:1 obj 1\\
1: 122:1 270:1 obj 1\\
1: 122:1 271:1 obj 1\\
1: 123:1 268:1 obj 1\\
1: 124:1 269:1 obj 1\\
2: 125:1 268:1 obj 1\\
0.9113257598358463: 126:1 356:1 445:1 obj 1\\
0.02416137831499948: 127:1 391:1 411:1 obj 1\\
0.8930765654252695: 128:1 264:1 obj 1\\
1: 129:1 263:1 obj 1\\
1: 130:1 262:1 obj 1\\
1: 131:1 261:1 obj 1\\
3: 132:1 260:1 obj 1\\
1: 134:1 257:1 obj 1\\
1: 135:1 256:1 obj 1\\
3: 136:1 255:1 obj 1\\
1: 137:1 254:1 obj 1\\
1: 138:1 253:1 obj 1\\
1: 141:1 251:1 obj 1\\
1: 141:1 252:1 obj 1\\
1: 142:1 250:1 obj 1\\
1: 143:1 248:1 obj 1\\
3: 143:1 249:1 obj 1\\
2: 145:1 245:1 obj 1\\
1: 147:1 242:1 obj 1\\
2: 148:1 243:1 obj 1\\
1: 150:1 341:1 430:1 obj 1\\
1: 151:1 241:1 obj 1\\
1: 152:1 240:1 obj 1\\
0.3676099952754772: 153:1 349:1 420:1 obj 1\\
1: 154:1 239:1 obj 1\\
1: 155:1 238:1 obj 1\\
1: 156:1 234:1 obj 1\\
1: 157:1 232:1 obj 1\\
1: 158:1 231:1 obj 1\\
1: 159:1 230:1 obj 1\\
1: 159:1 231:1 obj 1\\
1: 160:1 229:1 obj 1\\
1: 161:1 228:1 obj 1\\
1: 162:1 227:1 obj 1\\
1: 164:1 226:1 obj 1\\
1: 168:1 221:1 obj 1\\
1: 169:1 222:1 obj 1\\
1: 170:1 223:1 obj 1\\
2: 172:1 219:1 obj 1\\
2: 173:1 218:1 obj 1\\
1: 174:1 217:1 obj 1\\
1: 176:1 215:1 obj 1\\
1: 177:1 214:1 obj 1\\
1: 178:1 216:1 obj 1\\
1: 179:1 213:1 obj 1\\
1: 180:1 212:1 obj 1\\
0.9047931210337361: 180:1 326:1 416:1 obj 1\\
4: 181:1 211:1 obj 1\\
0.3787193051385471: 182:1 293:1 445:1 obj 1\\
1: 183:1 210:1 obj 1\\
1: 184:1 208:1 obj 1\\
1: 185:1 209:1 obj 1\\
1: 186:1 207:1 obj 1\\
0.8644235124411851: 186:1 301:1 434:1 obj 1\\
1: 187:1 205:1 obj 1\\
1: 189:1 204:1 obj 1\\
2: 190:1 206:1 obj 1\\
1: 191:1 203:1 obj 1\\
1: 192:1 202:1 obj 1\\
2: 194:1 201:1 obj 1\\
1.325125909114278: 194:1 301:1 428:1 obj 1\\
1: 195:1 303:1 425:1 obj 1\\
1: 196:1 199:1 obj 1\\
1: 197:1 198:1 obj 1\\
1: 199:2 obj 1\\
0.4712428498896161: 210:1 300:1 411:1 obj 1\\
0.9356298495319946: 228:1 279:1 410:1 obj 1\\
0.5054858134830174: 236:1 273:1 413:1 obj 1\\
2: 19:1 378:1 obj 1\\
1: 88:1 304:1 obj 1\\
0.05963875970563234: 77:1 410:1 444:1 obj 1\\
1: 8:1 388:1 obj 1\\
1: 15:1 383:1 obj 1\\
1: 18:1 379:1 obj 1\\
1: 126:1 267:1 obj 1\\
1: 166:1 225:1 obj 1\\
1: 45:1 348:1 obj 1\\
2: 49:1 345:1 obj 1\\
0.9758386216850006: 127:1 403:2 obj 1\\
1: 174:1 220:1 obj 1\\
0.5: 229:1 345:2 obj 1\\
1: 80:1 318:1 obj 1\\
0.6036307531580944: 81:1 317:1 obj 1\\
1: 105:1 286:1 obj 1\\
0.1069234345747305: 129:1 264:1 obj 1\\
0.3015140240293999: 226:1 300:1 393:1 obj 1\\
1: 7:1 389:1 obj 1\\
1: 11:1 386:1 obj 1\\
1: 46:1 347:1 obj 1\\
1: 69:1 326:1 obj 1\\
1: 72:1 322:1 obj 1\\
0.1639737257952604: 130:1 350:1 444:1 obj 1\\
0.8316221101695833: 139:1 358:1 427:1 obj 1\\
1: 149:1 315:1 455:1 obj 1\\
1: 165:1 226:1 obj 1\\
0.09520687896626386: 195:1 326:1 404:1 obj 1\\
1: 54:1 338:1 obj 1\\
0.1069234345747305: 128:1 265:1 obj 1\\
1: 146:1 244:1 obj 1\\
1: 149:1 243:1 obj 1\\
0.246332602702097: 171:1 348:1 403:1 obj 1\\
1: 188:1 205:1 obj 1\\
0.674874090885722: 194:1 315:1 417:1 obj 1\\
0.6291089563681433: 229:1 245:1 449:1 obj 1\\
0.4945141865169826: 233:1 236:1 456:1 obj 1\\
0.1639737257952604: 271:1 281:1 359:1 obj 1\\
0.4266320902095042: 280:2 349:1 obj 1\\
1: 19:1 454:2 obj 1\\
0.1305386219476816: 60:1 428:1 442:1 obj 1\\
0.3098031798782594: 74:1 407:1 450:1 obj 1\\
0.3121149316332539: 108:1 404:1 421:1 obj 1\\
0.325125909114278: 109:1 408:1 414:1 obj 1\\
1: 124:1 268:1 obj 1\\
0.4516373532311198: 129:1 362:1 435:1 obj 1\\
0.7407812688216348: 206:1 306:1 409:1 obj 1\\
0.9018550603249229: 233:1 295:1 392:1 obj 1\\
0.03377478920707166: 234:1 295:1 391:1 obj 1\\
1: 246:1 313:1 361:1 obj 1\\
0.1171958020413375: 259:1 307:1 348:1 obj 1\\
1: 107:1 408:1 416:1 obj 1\\
0.3233960730541185: 117:1 373:1 440:1 obj 1\\
1: 119:1 274:1 obj 1\\
0.1639737257952604: 126:1 402:1 405:1 obj 1\\
0.6878850683667461: 150:1 350:1 421:1 obj 1\\
1: 163:1 227:1 obj 1\\
2: 167:1 224:1 obj 1\\
1: 175:1 315:1 433:1 obj 1\\
1: 186:1 308:1 427:1 obj 1\\
0.1243642814014756: 195:1 312:1 418:1 obj 1\\
0.3708910436318567: 228:1 245:1 450:1 obj 1\\
0.7672519597015779: 234:1 334:1 349:1 obj 1\\
0.4923765178798263: 237:1 247:1 443:1 obj 1\\
0.2319834855575555: 293:2 324:1 obj 1\\
1: 20:1 446:1 460:1 obj 1\\
1: 41:1 354:1 obj 1\\
1: 60:1 332:1 obj 1\\
0.8853875629076488: 81:1 407:1 444:1 obj 1\\
1: 84:1 311:1 obj 1\\
0.8323184801669448: 102:1 409:1 418:1 obj 1\\
0.7522978858976922: 108:1 411:2 obj 1\\
0.5603429726371658: 116:1 277:1 obj 1\\
0.009299018057137731: 140:1 348:1 435:1 obj 1\\
0.1437370418028373: 150:1 349:1 422:1 obj 1\\
1: 170:1 221:1 obj 1\\
0.8196400956312606: 180:1 299:1 442:1 obj 1\\
0.3514780178316035: 186:1 296:1 439:1 obj 1\\
0.79349081494841: 210:1 293:1 418:1 obj 1\\
0.4992455772793557: 210:1 301:1 410:1 obj 1\\
0.8196400956312606: 220:1 273:1 429:1 obj 1\\
0.6984859759706001: 226:1 271:1 423:1 obj 1\\
0.5483626467688802: 229:1 328:1 362:1 obj 1\\
0.3963692468419054: 239:1 281:1 402:1 obj 1\\
1: 20:1 451:1 457:1 obj 1\\
1: 42:1 436:1 452:1 obj 1\\
0.6036307531580946: 54:1 433:1 442:1 obj 1\\
0.3963692468419056: 80:1 317:1 obj 1\\
0.1875856108801381: 81:1 417:1 435:1 obj 1\\
0.6806942235101161: 108:1 406:1 419:1 obj 1\\
1.456532207253102: 116:1 404:1 412:1 obj 1\\
0.3015140240293999: 117:1 391:1 423:1 obj 1\\
0.4269002510114204: 119:1 403:1 409:1 obj 1\\
1: 133:1 259:1 obj 1\\
0.1639737257952604: 137:1 350:1 436:1 obj 1\\
0.2189474031819793: 144:1 366:1 413:1 obj 1\\
0.3963692468419054: 171:1 319:1 433:1 obj 1\\
0.1105561390848673: 206:1 301:1 416:1 obj 1\\
0.4662359807551649: 228:1 306:1 383:1 obj 1\\
0.1639737257952604: 266:1 307:1 341:1 obj 1\\
1: 33:1 363:1 obj 1\\
1: 63:1 432:1 436:1 obj 1\\
0.674874090885722: 76:1 408:1 447:1 obj 1\\
0.6210554638044837: 77:1 428:2 obj 1\\
0.6766039269458815: 106:1 373:1 448:1 obj 1\\
0.6914871141342063: 109:1 391:1 431:1 obj 1\\
0.4396570273628342: 114:1 277:1 obj 1\\
1: 134:1 258:1 obj 1\\
0.5445104526798989: 140:1 350:1 434:1 obj 1\\
0.1683778898304166: 150:1 358:1 412:1 obj 1\\
0.3514780178316035: 179:1 306:1 435:1 obj 1\\
0.3638229087979319: 195:1 293:1 434:1 obj 1\\
1: 200:1 279:1 442:1 obj 1\\
0.8360262742047396: 252:1 266:1 405:1 obj 1\\
0.5880352849480582: 259:1 328:2 obj 1\\
0.1467358195809916: 280:1 306:1 324:1 obj 1\\
1.227243126080984: 74:1 424:1 434:1 obj 1\\
0.325125909114278: 76:1 418:1 439:1 obj 1\\
0.3750899029164816: 117:1 403:1 412:1 obj 1\\
0.8360262742047396: 130:1 359:1 436:1 obj 1\\
1: 135:1 351:1 438:1 obj 1\\
0.8360262742047396: 137:1 341:1 444:1 obj 1\\
0.1683778898304166: 139:1 334:1 447:1 obj 1\\
0.4461905292629633: 140:1 342:1 442:1 obj 1\\
0.7810525968180206: 144:1 365:1 415:1 obj 1\\
1.632390004724523: 153:1 366:1 404:1 obj 1\\
1: 193:1 278:1 448:1 obj 1\\
0.4461905292629633: 227:1 247:1 449:1 obj 1\\
0.1375402982341395: 234:1 271:1 417:1 obj 1\\
0.674874090885722: 235:1 273:1 414:1 obj 1\\
0.5076234821201737: 237:1 291:1 391:1 obj 1\\
1: 239:1 260:1 426:1 obj 1\\
0.3963692468419054: 54:1 420:1 453:1 obj 1\\
0.363975564569301: 60:1 427:1 443:1 obj 1\\
0.9247005143688933: 63:1 418:1 449:1 obj 1\\
0.3193057764898839: 74:1 419:1 440:1 obj 1\\
0.3193057764898839: 77:1 406:1 450:1 obj 1\\
0.3633700450199422: 109:1 407:1 416:1 obj 1\\
0.2103679461907166: 116:1 383:1 431:1 obj 1\\
0.9247005143688933: 126:1 348:1 452:1 obj 1\\
0.6485219821683965: 179:1 296:1 445:1 obj 1\\
0.2755667833350033: 180:1 328:1 413:1 obj 1\\
0.3022245413290722: 186:1 307:1 428:1 obj 1\\
0.4166059308343286: 195:1 307:1 422:1 obj 1\\
0.1803599043687394: 220:1 299:1 404:1 obj 1\\
0.2272431260809841: 228:1 300:1 390:1 obj 1\\
0.5181260716018607: 229:1 297:1 393:1 obj 1\\
0.325125909114278: 235:1 315:1 372:1 obj 1\\
0.1639737257952604: 252:1 301:1 365:1 obj 1\\
0.08867424016415373: 265:1 291:1 356:1 obj 1\\
1: 65:1 425:1 441:1 obj 1\\
0.1436479175508726: 74:1 415:1 443:1 obj 1\\
0.3233960730541185: 81:1 404:1 448:1 obj 1\\
0.3233960730541185: 106:1 383:1 439:1 obj 1\\
0.1567480192838613: 108:1 372:1 447:1 obj 1\\
0.05497367738671891: 119:1 365:1 444:1 obj 1\\
0.4414392121941497: 129:1 391:1 407:1 obj 1\\
0.3572981504559976: 171:1 312:1 440:1 obj 1\\
0.6212806948614529: 182:1 324:1 416:1 obj 1\\
0.4818739283981393: 186:1 297:1 437:1 obj 1\\
0.148662592093498: 206:1 348:1 366:1 obj 1\\
0.2360207578826172: 210:1 291:1 420:1 obj 1\\
0.5538094707370367: 227:1 342:1 348:1 obj 1\\
0.8044023252611157: 229:1 265:1 427:1 obj 1\\
0.6036307531580946: 233:1 239:1 453:1 obj 1\\
0.0614329528572104: 234:1 247:1 445:1 obj 1\\
0.2947689130106043: 259:1 306:1 349:1 obj 1\\
0.4396570273628342: 278:1 281:1 350:1 obj 1\\
0.06437015046800548: 279:1 295:1 334:1 obj 1\\
0.5183375681425268: 301:2 312:1 obj 1\\






File: BPP_750_1000_0.1_0.8_7.txt  Instance No. 1
Wed Feb 25 13:52:20 2015

LP0 Time: 1.96 IPTime: 1.96 The best integer solution (336):

1: 0:1 398:1 obj 1\\
1: 0:1 399:1 obj 1\\
2: 1:1 397:1 obj 1\\
1: 2:1 396:1 obj 1\\
1: 3:1 395:1 obj 1\\
1: 3:1 396:1 obj 1\\
1: 4:1 458:1 459:1 obj 1\\
1: 5:1 394:1 obj 1\\
1: 5:1 400:1 obj 1\\
1: 5:1 401:1 obj 1\\
1: 6:1 393:1 obj 1\\
1: 9:1 384:1 obj 1\\
2: 9:1 385:1 obj 1\\
1: 10:1 386:1 obj 1\\
1: 11:1 387:1 obj 1\\
2: 11:1 388:1 obj 1\\
1: 12:1 383:1 obj 1\\
1: 13:1 383:1 obj 1\\
1: 14:1 382:1 obj 1\\
1: 16:1 380:1 obj 1\\
2: 16:1 381:1 obj 1\\
2: 17:1 379:1 obj 1\\
2: 20:1 377:1 obj 1\\
2: 21:1 376:1 obj 1\\
1: 22:1 375:1 obj 1\\
1: 23:1 374:1 obj 1\\
1: 24:1 373:1 obj 1\\
1: 25:1 370:1 obj 1\\
1: 25:1 371:1 obj 1\\
1: 26:1 371:1 obj 1\\
1: 27:1 369:1 obj 1\\
1: 28:1 368:1 obj 1\\
1: 29:1 367:1 obj 1\\
1: 30:1 366:1 obj 1\\
1: 31:1 363:1 obj 1\\
1: 32:1 364:1 obj 1\\
1: 34:1 362:1 obj 1\\
1: 35:1 360:1 obj 1\\
1: 36:1 359:1 obj 1\\
1: 37:1 357:1 obj 1\\
1: 37:1 358:1 obj 1\\
2: 38:1 355:1 obj 1\\
1: 39:1 354:1 obj 1\\
1: 40:1 353:1 obj 1\\
1: 41:1 353:1 obj 1\\
2: 42:1 352:1 obj 1\\
1: 43:1 350:1 obj 1\\
1: 44:1 348:1 obj 1\\
1: 45:1 347:1 obj 1\\
2: 47:1 346:1 obj 1\\
1: 48:1 344:1 obj 1\\
1: 49:1 343:1 obj 1\\
3: 50:1 343:1 obj 1\\
1: 51:1 340:1 obj 1\\
1: 52:1 339:1 obj 1\\
1: 53:1 337:1 obj 1\\
1: 54:1 336:1 obj 1\\
1: 54:1 337:1 obj 1\\
1: 55:1 335:1 obj 1\\
1: 56:1 334:1 obj 1\\
1: 57:1 333:1 obj 1\\
2: 58:1 333:1 obj 1\\
1: 59:1 332:1 obj 1\\
1: 60:1 410:1 456:1 obj 1\\
1: 61:1 331:1 obj 1\\
1: 62:1 330:1 obj 1\\
1: 62:1 331:1 obj 1\\
1: 64:1 329:1 obj 1\\
1: 66:1 328:1 obj 1\\
1: 67:1 327:1 obj 1\\
3: 68:1 326:1 obj 1\\
1: 69:1 325:1 obj 1\\
1: 70:1 322:1 obj 1\\
1: 71:1 323:1 obj 1\\
3: 73:1 321:1 obj 1\\
1: 74:1 321:1 obj 1\\
2: 75:1 320:1 obj 1\\
1: 78:1 318:1 obj 1\\
1: 79:1 317:1 obj 1\\
2: 80:1 319:1 obj 1\\
1: 81:1 316:1 obj 1\\
1: 82:1 314:1 obj 1\\
1: 83:1 312:1 obj 1\\
1: 84:1 310:1 obj 1\\
1: 85:1 309:1 obj 1\\
1: 86:1 306:1 obj 1\\
2: 87:1 304:1 obj 1\\
1: 88:1 305:1 obj 1\\
1: 89:1 303:1 obj 1\\
1: 90:1 302:1 obj 1\\
1: 91:1 302:1 obj 1\\
1: 92:1 298:1 obj 1\\
3: 93:1 297:1 obj 1\\
1: 94:1 295:1 obj 1\\
1: 95:1 294:1 obj 1\\
1: 96:1 293:1 obj 1\\
1: 97:1 292:1 obj 1\\
1: 98:1 291:1 obj 1\\
2: 99:1 289:1 obj 1\\
1: 99:1 290:1 obj 1\\
1: 100:1 288:1 obj 1\\
1: 101:1 287:1 obj 1\\
1: 102:1 288:1 obj 1\\
1: 102:1 290:1 obj 1\\
1: 103:1 286:1 obj 1\\
1: 104:1 285:1 obj 1\\
1: 105:1 284:1 obj 1\\
1: 106:1 283:1 obj 1\\
1: 109:1 402:1 422:1 obj 1\\
1: 110:1 282:1 obj 1\\
1: 111:1 280:1 obj 1\\
1: 112:1 279:1 obj 1\\
3: 113:1 277:1 obj 1\\
1: 114:1 278:1 obj 1\\
1: 115:1 276:1 obj 1\\
1: 116:1 390:1 424:1 obj 1\\
1: 117:1 275:1 obj 1\\
1: 118:1 274:1 obj 1\\
1: 119:1 372:1 437:1 obj 1\\
1: 120:1 272:1 obj 1\\
1: 121:1 271:1 obj 1\\
1: 122:1 270:1 obj 1\\
1: 122:1 271:1 obj 1\\
1: 123:1 268:1 obj 1\\
1: 124:1 269:1 obj 1\\
2: 125:1 268:1 obj 1\\
1: 126:1 356:1 445:1 obj 1\\
1: 128:1 264:1 obj 1\\
1: 129:1 263:1 obj 1\\
1: 130:1 262:1 obj 1\\
1: 131:1 261:1 obj 1\\
3: 132:1 260:1 obj 1\\
1: 134:1 257:1 obj 1\\
1: 135:1 256:1 obj 1\\
3: 136:1 255:1 obj 1\\
1: 137:1 254:1 obj 1\\
1: 138:1 253:1 obj 1\\
1: 141:1 251:1 obj 1\\
1: 141:1 252:1 obj 1\\
1: 142:1 250:1 obj 1\\
1: 143:1 248:1 obj 1\\
3: 143:1 249:1 obj 1\\
2: 145:1 245:1 obj 1\\
1: 147:1 242:1 obj 1\\
2: 148:1 243:1 obj 1\\
1: 150:1 341:1 430:1 obj 1\\
1: 151:1 241:1 obj 1\\
1: 152:1 240:1 obj 1\\
1: 154:1 239:1 obj 1\\
1: 155:1 238:1 obj 1\\
1: 156:1 234:1 obj 1\\
1: 157:1 232:1 obj 1\\
1: 158:1 231:1 obj 1\\
1: 159:1 230:1 obj 1\\
1: 159:1 231:1 obj 1\\
1: 160:1 229:1 obj 1\\
1: 161:1 228:1 obj 1\\
1: 162:1 227:1 obj 1\\
1: 164:1 226:1 obj 1\\
1: 168:1 221:1 obj 1\\
1: 169:1 222:1 obj 1\\
1: 170:1 223:1 obj 1\\
2: 172:1 219:1 obj 1\\
2: 173:1 218:1 obj 1\\
1: 174:1 217:1 obj 1\\
1: 176:1 215:1 obj 1\\
1: 177:1 214:1 obj 1\\
1: 178:1 216:1 obj 1\\
1: 179:1 213:1 obj 1\\
1: 180:1 212:1 obj 1\\
1: 180:1 326:1 416:1 obj 1\\
4: 181:1 211:1 obj 1\\
1: 183:1 210:1 obj 1\\
1: 184:1 208:1 obj 1\\
1: 185:1 209:1 obj 1\\
1: 186:1 207:1 obj 1\\
1: 186:1 301:1 434:1 obj 1\\
1: 187:1 205:1 obj 1\\
1: 189:1 204:1 obj 1\\
2: 190:1 206:1 obj 1\\
1: 191:1 203:1 obj 1\\
1: 192:1 202:1 obj 1\\
2: 194:1 201:1 obj 1\\
1: 194:1 301:1 428:1 obj 1\\
1: 195:1 303:1 425:1 obj 1\\
1: 196:1 199:1 obj 1\\
1: 197:1 198:1 obj 1\\
1: 199:2 obj 1\\
1: 228:1 279:1 410:1 obj 1\\
2: 19:1 378:1 obj 1\\
1: 88:1 304:1 obj 1\\
1: 8:1 388:1 obj 1\\
1: 15:1 383:1 obj 1\\
1: 18:1 379:1 obj 1\\
1: 126:1 267:1 obj 1\\
1: 166:1 225:1 obj 1\\
1: 45:1 348:1 obj 1\\
2: 49:1 345:1 obj 1\\
1: 127:1 403:2 obj 1\\
1: 174:1 220:1 obj 1\\
1: 80:1 318:1 obj 1\\
1: 81:1 317:1 obj 1\\
1: 105:1 286:1 obj 1\\
1: 7:1 389:1 obj 1\\
1: 11:1 386:1 obj 1\\
1: 46:1 347:1 obj 1\\
1: 69:1 326:1 obj 1\\
1: 72:1 322:1 obj 1\\
1: 139:1 358:1 427:1 obj 1\\
1: 149:1 315:1 455:1 obj 1\\
1: 165:1 226:1 obj 1\\
1: 54:1 338:1 obj 1\\
1: 146:1 244:1 obj 1\\
1: 149:1 243:1 obj 1\\
1: 188:1 205:1 obj 1\\
1: 194:1 315:1 417:1 obj 1\\
1: 229:1 245:1 449:1 obj 1\\
1: 19:1 454:2 obj 1\\
1: 74:1 407:1 450:1 obj 1\\
1: 124:1 268:1 obj 1\\
1: 129:1 362:1 435:1 obj 1\\
1: 206:1 306:1 409:1 obj 1\\
1: 233:1 295:1 392:1 obj 1\\
1: 246:1 313:1 361:1 obj 1\\
1: 107:1 408:1 416:1 obj 1\\
1: 119:1 274:1 obj 1\\
1: 150:1 350:1 421:1 obj 1\\
1: 163:1 227:1 obj 1\\
2: 167:1 224:1 obj 1\\
1: 175:1 315:1 433:1 obj 1\\
1: 186:1 308:1 427:1 obj 1\\
1: 234:1 334:1 349:1 obj 1\\
1: 20:1 446:1 460:1 obj 1\\
1: 41:1 354:1 obj 1\\
1: 60:1 332:1 obj 1\\
1: 81:1 407:1 444:1 obj 1\\
1: 84:1 311:1 obj 1\\
1: 102:1 409:1 418:1 obj 1\\
1: 108:1 411:2 obj 1\\
1: 116:1 277:1 obj 1\\
1: 170:1 221:1 obj 1\\
1: 180:1 299:1 442:1 obj 1\\
1: 210:1 293:1 418:1 obj 1\\
1: 220:1 273:1 429:1 obj 1\\
1: 226:1 271:1 423:1 obj 1\\
1: 20:1 451:1 457:1 obj 1\\
1: 42:1 436:1 452:1 obj 1\\
1: 54:1 433:1 442:1 obj 1\\
1: 108:1 406:1 419:1 obj 1\\
1: 116:1 404:1 412:1 obj 1\\
1: 133:1 259:1 obj 1\\
1: 228:1 306:1 383:1 obj 1\\
1: 33:1 363:1 obj 1\\
1: 63:1 432:1 436:1 obj 1\\
1: 76:1 408:1 447:1 obj 1\\
1: 77:1 428:2 obj 1\\
1: 106:1 373:1 448:1 obj 1\\
1: 109:1 391:1 431:1 obj 1\\
1: 134:1 258:1 obj 1\\
1: 140:1 350:1 434:1 obj 1\\
1: 200:1 279:1 442:1 obj 1\\
1: 252:1 266:1 405:1 obj 1\\
1: 259:1 328:2 obj 1\\
1: 74:1 424:1 434:1 obj 1\\
1: 117:1 403:1 412:1 obj 1\\
1: 130:1 359:1 436:1 obj 1\\
1: 135:1 351:1 438:1 obj 1\\
1: 137:1 341:1 444:1 obj 1\\
1: 144:1 365:1 415:1 obj 1\\
2: 153:1 366:1 404:1 obj 1\\
1: 193:1 278:1 448:1 obj 1\\
1: 235:1 273:1 414:1 obj 1\\
1: 237:1 291:1 391:1 obj 1\\
1: 239:1 260:1 426:1 obj 1\\
1: 63:1 418:1 449:1 obj 1\\
1: 126:1 348:1 452:1 obj 1\\
1: 179:1 296:1 445:1 obj 1\\
1: 229:1 297:1 393:1 obj 1\\
1: 65:1 425:1 441:1 obj 1\\
1: 182:1 324:1 416:1 obj 1\\
1: 227:1 342:1 348:1 obj 1\\
1: 229:1 265:1 427:1 obj 1\\
1: 233:1 239:1 453:1 obj 1\\
1: 301:2 312:1 obj 1\\
1: 186:1 210:1 obj 1\\
1: 171:1 307:1 443:1 obj 1\\
1: 280:1 281:1 349:1 obj 1\\
1: 195:1 293:1 439:1 obj 1\\
1: 236:1 300:1 404:1 obj 1\\
1: 247:1 413:1 420:1 440:1 obj 1\\
1: 345:1 obj 1\\



The last LP solution 


File: BPP_750_1000_0.1_0.8_7.txt  Instance No. 1
Wed Feb 25 13:52:20 2015

LP solution: lpval=335.1461928934012 lpbnd=336

1: 0:1 398:1 obj 1\\
1: 0:1 399:1 obj 1\\
2: 1:1 397:1 obj 1\\
1: 2:1 396:1 obj 1\\
1: 3:1 395:1 obj 1\\
1: 3:1 396:1 obj 1\\
1: 4:1 458:1 459:1 obj 1\\
1: 5:1 394:1 obj 1\\
1: 5:1 400:1 obj 1\\
1: 5:1 401:1 obj 1\\
1: 6:1 393:1 obj 1\\
1: 9:1 384:1 obj 1\\
2: 9:1 385:1 obj 1\\
1: 10:1 386:1 obj 1\\
1: 11:1 387:1 obj 1\\
2: 11:1 388:1 obj 1\\
1: 12:1 383:1 obj 1\\
1: 13:1 383:1 obj 1\\
1: 14:1 382:1 obj 1\\
1: 16:1 380:1 obj 1\\
2: 16:1 381:1 obj 1\\
2: 17:1 379:1 obj 1\\
2: 20:1 377:1 obj 1\\
2: 21:1 376:1 obj 1\\
1: 22:1 375:1 obj 1\\
1: 23:1 374:1 obj 1\\
1: 24:1 373:1 obj 1\\
1: 25:1 370:1 obj 1\\
1: 25:1 371:1 obj 1\\
1: 26:1 371:1 obj 1\\
1: 27:1 369:1 obj 1\\
1: 28:1 368:1 obj 1\\
1: 29:1 367:1 obj 1\\
1: 30:1 366:1 obj 1\\
1: 31:1 363:1 obj 1\\
1: 32:1 364:1 obj 1\\
1: 34:1 362:1 obj 1\\
1: 35:1 360:1 obj 1\\
1: 36:1 359:1 obj 1\\
1: 37:1 357:1 obj 1\\
1: 37:1 358:1 obj 1\\
2: 38:1 355:1 obj 1\\
1: 39:1 354:1 obj 1\\
1: 40:1 353:1 obj 1\\
1: 41:1 353:1 obj 1\\
2: 42:1 352:1 obj 1\\
1: 43:1 350:1 obj 1\\
1: 44:1 348:1 obj 1\\
1: 45:1 347:1 obj 1\\
2: 47:1 346:1 obj 1\\
1: 48:1 344:1 obj 1\\
1: 49:1 343:1 obj 1\\
3: 50:1 343:1 obj 1\\
1: 51:1 340:1 obj 1\\
1: 52:1 339:1 obj 1\\
1: 53:1 337:1 obj 1\\
1: 54:1 336:1 obj 1\\
1: 54:1 337:1 obj 1\\
1: 55:1 335:1 obj 1\\
1: 56:1 334:1 obj 1\\
1: 57:1 333:1 obj 1\\
2: 58:1 333:1 obj 1\\
1: 59:1 332:1 obj 1\\
0.5054858134830174: 60:1 410:1 456:1 obj 1\\
1: 61:1 331:1 obj 1\\
1: 62:1 330:1 obj 1\\
1: 62:1 331:1 obj 1\\
0.07529948563110667: 63:1 415:1 452:1 obj 1\\
1: 64:1 329:1 obj 1\\
1: 66:1 328:1 obj 1\\
1: 67:1 327:1 obj 1\\
3: 68:1 326:1 obj 1\\
1: 69:1 325:1 obj 1\\
1: 70:1 322:1 obj 1\\
1: 71:1 323:1 obj 1\\
3: 73:1 321:1 obj 1\\
1: 74:1 321:1 obj 1\\
2: 75:1 320:1 obj 1\\
1: 78:1 318:1 obj 1\\
1: 79:1 317:1 obj 1\\
1.603630753158094: 80:1 319:1 obj 1\\
1: 81:1 316:1 obj 1\\
1: 82:1 314:1 obj 1\\
1: 83:1 312:1 obj 1\\
1: 84:1 310:1 obj 1\\
1: 85:1 309:1 obj 1\\
1: 86:1 306:1 obj 1\\
2: 87:1 304:1 obj 1\\
1: 88:1 305:1 obj 1\\
1: 89:1 303:1 obj 1\\
1: 90:1 302:1 obj 1\\
1: 91:1 302:1 obj 1\\
1: 92:1 298:1 obj 1\\
3: 93:1 297:1 obj 1\\
1: 94:1 295:1 obj 1\\
1: 95:1 294:1 obj 1\\
1: 96:1 293:1 obj 1\\
1: 97:1 292:1 obj 1\\
1: 98:1 291:1 obj 1\\
2: 99:1 289:1 obj 1\\
1: 99:1 290:1 obj 1\\
1: 100:1 288:1 obj 1\\
1: 101:1 287:1 obj 1\\
1: 102:1 288:1 obj 1\\
1: 102:1 290:1 obj 1\\
0.1676815198330552: 102:1 291:1 obj 1\\
1: 103:1 286:1 obj 1\\
1: 104:1 285:1 obj 1\\
1: 105:1 284:1 obj 1\\
1: 106:1 283:1 obj 1\\
0.09814493967507709: 108:1 392:1 431:1 obj 1\\
0.1803599043687394: 109:1 393:1 429:1 obj 1\\
0.4396570273628342: 109:1 402:1 422:1 obj 1\\
1: 110:1 282:1 obj 1\\
1: 111:1 280:1 obj 1\\
1: 112:1 279:1 obj 1\\
3: 113:1 277:1 obj 1\\
0.5603429726371658: 114:1 278:1 obj 1\\
1: 115:1 276:1 obj 1\\
0.7727568739190159: 116:1 390:1 424:1 obj 1\\
1: 117:1 275:1 obj 1\\
1: 118:1 274:1 obj 1\\
0.5181260716018607: 119:1 372:1 437:1 obj 1\\
1: 120:1 272:1 obj 1\\
1: 121:1 271:1 obj 1\\
1: 122:1 270:1 obj 1\\
1: 122:1 271:1 obj 1\\
1: 123:1 268:1 obj 1\\
1: 124:1 269:1 obj 1\\
2: 125:1 268:1 obj 1\\
0.9113257598358463: 126:1 356:1 445:1 obj 1\\
0.02416137831499948: 127:1 391:1 411:1 obj 1\\
0.8930765654252695: 128:1 264:1 obj 1\\
1: 129:1 263:1 obj 1\\
1: 130:1 262:1 obj 1\\
1: 131:1 261:1 obj 1\\
3: 132:1 260:1 obj 1\\
1: 134:1 257:1 obj 1\\
1: 135:1 256:1 obj 1\\
3: 136:1 255:1 obj 1\\
1: 137:1 254:1 obj 1\\
1: 138:1 253:1 obj 1\\
1: 141:1 251:1 obj 1\\
1: 141:1 252:1 obj 1\\
1: 142:1 250:1 obj 1\\
1: 143:1 248:1 obj 1\\
3: 143:1 249:1 obj 1\\
2: 145:1 245:1 obj 1\\
1: 147:1 242:1 obj 1\\
2: 148:1 243:1 obj 1\\
1: 150:1 341:1 430:1 obj 1\\
1: 151:1 241:1 obj 1\\
1: 152:1 240:1 obj 1\\
0.3676099952754772: 153:1 349:1 420:1 obj 1\\
1: 154:1 239:1 obj 1\\
1: 155:1 238:1 obj 1\\
1: 156:1 234:1 obj 1\\
1: 157:1 232:1 obj 1\\
1: 158:1 231:1 obj 1\\
1: 159:1 230:1 obj 1\\
1: 159:1 231:1 obj 1\\
1: 160:1 229:1 obj 1\\
1: 161:1 228:1 obj 1\\
1: 162:1 227:1 obj 1\\
1: 164:1 226:1 obj 1\\
1: 168:1 221:1 obj 1\\
1: 169:1 222:1 obj 1\\
1: 170:1 223:1 obj 1\\
2: 172:1 219:1 obj 1\\
2: 173:1 218:1 obj 1\\
1: 174:1 217:1 obj 1\\
1: 176:1 215:1 obj 1\\
1: 177:1 214:1 obj 1\\
1: 178:1 216:1 obj 1\\
1: 179:1 213:1 obj 1\\
1: 180:1 212:1 obj 1\\
0.9047931210337361: 180:1 326:1 416:1 obj 1\\
4: 181:1 211:1 obj 1\\
0.3787193051385471: 182:1 293:1 445:1 obj 1\\
1: 183:1 210:1 obj 1\\
1: 184:1 208:1 obj 1\\
1: 185:1 209:1 obj 1\\
1: 186:1 207:1 obj 1\\
0.8644235124411851: 186:1 301:1 434:1 obj 1\\
1: 187:1 205:1 obj 1\\
1: 189:1 204:1 obj 1\\
2: 190:1 206:1 obj 1\\
1: 191:1 203:1 obj 1\\
1: 192:1 202:1 obj 1\\
2: 194:1 201:1 obj 1\\
1.325125909114278: 194:1 301:1 428:1 obj 1\\
1: 195:1 303:1 425:1 obj 1\\
1: 196:1 199:1 obj 1\\
1: 197:1 198:1 obj 1\\
1: 199:2 obj 1\\
0.4712428498896161: 210:1 300:1 411:1 obj 1\\
0.9356298495319946: 228:1 279:1 410:1 obj 1\\
0.5054858134830174: 236:1 273:1 413:1 obj 1\\
2: 19:1 378:1 obj 1\\
1: 88:1 304:1 obj 1\\
0.05963875970563234: 77:1 410:1 444:1 obj 1\\
1: 8:1 388:1 obj 1\\
1: 15:1 383:1 obj 1\\
1: 18:1 379:1 obj 1\\
1: 126:1 267:1 obj 1\\
1: 166:1 225:1 obj 1\\
1: 45:1 348:1 obj 1\\
2: 49:1 345:1 obj 1\\
0.9758386216850006: 127:1 403:2 obj 1\\
1: 174:1 220:1 obj 1\\
0.5: 229:1 345:2 obj 1\\
1: 80:1 318:1 obj 1\\
0.6036307531580944: 81:1 317:1 obj 1\\
1: 105:1 286:1 obj 1\\
0.1069234345747305: 129:1 264:1 obj 1\\
0.3015140240293999: 226:1 300:1 393:1 obj 1\\
1: 7:1 389:1 obj 1\\
1: 11:1 386:1 obj 1\\
1: 46:1 347:1 obj 1\\
1: 69:1 326:1 obj 1\\
1: 72:1 322:1 obj 1\\
0.1639737257952604: 130:1 350:1 444:1 obj 1\\
0.8316221101695833: 139:1 358:1 427:1 obj 1\\
1: 149:1 315:1 455:1 obj 1\\
1: 165:1 226:1 obj 1\\
0.09520687896626386: 195:1 326:1 404:1 obj 1\\
1: 54:1 338:1 obj 1\\
0.1069234345747305: 128:1 265:1 obj 1\\
1: 146:1 244:1 obj 1\\
1: 149:1 243:1 obj 1\\
0.246332602702097: 171:1 348:1 403:1 obj 1\\
1: 188:1 205:1 obj 1\\
0.674874090885722: 194:1 315:1 417:1 obj 1\\
0.6291089563681433: 229:1 245:1 449:1 obj 1\\
0.4945141865169826: 233:1 236:1 456:1 obj 1\\
0.1639737257952604: 271:1 281:1 359:1 obj 1\\
0.4266320902095042: 280:2 349:1 obj 1\\
1: 19:1 454:2 obj 1\\
0.1305386219476816: 60:1 428:1 442:1 obj 1\\
0.3098031798782594: 74:1 407:1 450:1 obj 1\\
0.3121149316332539: 108:1 404:1 421:1 obj 1\\
0.325125909114278: 109:1 408:1 414:1 obj 1\\
1: 124:1 268:1 obj 1\\
0.4516373532311198: 129:1 362:1 435:1 obj 1\\
0.7407812688216348: 206:1 306:1 409:1 obj 1\\
0.9018550603249229: 233:1 295:1 392:1 obj 1\\
0.03377478920707166: 234:1 295:1 391:1 obj 1\\
1: 246:1 313:1 361:1 obj 1\\
0.1171958020413375: 259:1 307:1 348:1 obj 1\\
1: 107:1 408:1 416:1 obj 1\\
0.3233960730541185: 117:1 373:1 440:1 obj 1\\
1: 119:1 274:1 obj 1\\
0.1639737257952604: 126:1 402:1 405:1 obj 1\\
0.6878850683667461: 150:1 350:1 421:1 obj 1\\
1: 163:1 227:1 obj 1\\
2: 167:1 224:1 obj 1\\
1: 175:1 315:1 433:1 obj 1\\
1: 186:1 308:1 427:1 obj 1\\
0.1243642814014756: 195:1 312:1 418:1 obj 1\\
0.3708910436318567: 228:1 245:1 450:1 obj 1\\
0.7672519597015779: 234:1 334:1 349:1 obj 1\\
0.4923765178798263: 237:1 247:1 443:1 obj 1\\
0.2319834855575555: 293:2 324:1 obj 1\\
1: 20:1 446:1 460:1 obj 1\\
1: 41:1 354:1 obj 1\\
1: 60:1 332:1 obj 1\\
0.8853875629076488: 81:1 407:1 444:1 obj 1\\
1: 84:1 311:1 obj 1\\
0.8323184801669448: 102:1 409:1 418:1 obj 1\\
0.7522978858976922: 108:1 411:2 obj 1\\
0.5603429726371658: 116:1 277:1 obj 1\\
0.009299018057137731: 140:1 348:1 435:1 obj 1\\
0.1437370418028373: 150:1 349:1 422:1 obj 1\\
1: 170:1 221:1 obj 1\\
0.8196400956312606: 180:1 299:1 442:1 obj 1\\
0.3514780178316035: 186:1 296:1 439:1 obj 1\\
0.79349081494841: 210:1 293:1 418:1 obj 1\\
0.4992455772793557: 210:1 301:1 410:1 obj 1\\
0.8196400956312606: 220:1 273:1 429:1 obj 1\\
0.6984859759706001: 226:1 271:1 423:1 obj 1\\
0.5483626467688802: 229:1 328:1 362:1 obj 1\\
0.3963692468419054: 239:1 281:1 402:1 obj 1\\
1: 20:1 451:1 457:1 obj 1\\
1: 42:1 436:1 452:1 obj 1\\
0.6036307531580946: 54:1 433:1 442:1 obj 1\\
0.3963692468419056: 80:1 317:1 obj 1\\
0.1875856108801381: 81:1 417:1 435:1 obj 1\\
0.6806942235101161: 108:1 406:1 419:1 obj 1\\
1.456532207253102: 116:1 404:1 412:1 obj 1\\
0.3015140240293999: 117:1 391:1 423:1 obj 1\\
0.4269002510114204: 119:1 403:1 409:1 obj 1\\
1: 133:1 259:1 obj 1\\
0.1639737257952604: 137:1 350:1 436:1 obj 1\\
0.2189474031819793: 144:1 366:1 413:1 obj 1\\
0.3963692468419054: 171:1 319:1 433:1 obj 1\\
0.1105561390848673: 206:1 301:1 416:1 obj 1\\
0.4662359807551649: 228:1 306:1 383:1 obj 1\\
0.1639737257952604: 266:1 307:1 341:1 obj 1\\
1: 33:1 363:1 obj 1\\
1: 63:1 432:1 436:1 obj 1\\
0.674874090885722: 76:1 408:1 447:1 obj 1\\
0.6210554638044837: 77:1 428:2 obj 1\\
0.6766039269458815: 106:1 373:1 448:1 obj 1\\
0.6914871141342063: 109:1 391:1 431:1 obj 1\\
0.4396570273628342: 114:1 277:1 obj 1\\
1: 134:1 258:1 obj 1\\
0.5445104526798989: 140:1 350:1 434:1 obj 1\\
0.1683778898304166: 150:1 358:1 412:1 obj 1\\
0.3514780178316035: 179:1 306:1 435:1 obj 1\\
0.3638229087979319: 195:1 293:1 434:1 obj 1\\
1: 200:1 279:1 442:1 obj 1\\
0.8360262742047396: 252:1 266:1 405:1 obj 1\\
0.5880352849480582: 259:1 328:2 obj 1\\
0.1467358195809916: 280:1 306:1 324:1 obj 1\\
1.227243126080984: 74:1 424:1 434:1 obj 1\\
0.325125909114278: 76:1 418:1 439:1 obj 1\\
0.3750899029164816: 117:1 403:1 412:1 obj 1\\
0.8360262742047396: 130:1 359:1 436:1 obj 1\\
1: 135:1 351:1 438:1 obj 1\\
0.8360262742047396: 137:1 341:1 444:1 obj 1\\
0.1683778898304166: 139:1 334:1 447:1 obj 1\\
0.4461905292629633: 140:1 342:1 442:1 obj 1\\
0.7810525968180206: 144:1 365:1 415:1 obj 1\\
1.632390004724523: 153:1 366:1 404:1 obj 1\\
1: 193:1 278:1 448:1 obj 1\\
0.4461905292629633: 227:1 247:1 449:1 obj 1\\
0.1375402982341395: 234:1 271:1 417:1 obj 1\\
0.674874090885722: 235:1 273:1 414:1 obj 1\\
0.5076234821201737: 237:1 291:1 391:1 obj 1\\
1: 239:1 260:1 426:1 obj 1\\
0.3963692468419054: 54:1 420:1 453:1 obj 1\\
0.363975564569301: 60:1 427:1 443:1 obj 1\\
0.9247005143688933: 63:1 418:1 449:1 obj 1\\
0.3193057764898839: 74:1 419:1 440:1 obj 1\\
0.3193057764898839: 77:1 406:1 450:1 obj 1\\
0.3633700450199422: 109:1 407:1 416:1 obj 1\\
0.2103679461907166: 116:1 383:1 431:1 obj 1\\
0.9247005143688933: 126:1 348:1 452:1 obj 1\\
0.6485219821683965: 179:1 296:1 445:1 obj 1\\
0.2755667833350033: 180:1 328:1 413:1 obj 1\\
0.3022245413290722: 186:1 307:1 428:1 obj 1\\
0.4166059308343286: 195:1 307:1 422:1 obj 1\\
0.1803599043687394: 220:1 299:1 404:1 obj 1\\
0.2272431260809841: 228:1 300:1 390:1 obj 1\\
0.5181260716018607: 229:1 297:1 393:1 obj 1\\
0.325125909114278: 235:1 315:1 372:1 obj 1\\
0.1639737257952604: 252:1 301:1 365:1 obj 1\\
0.08867424016415373: 265:1 291:1 356:1 obj 1\\
1: 65:1 425:1 441:1 obj 1\\
0.1436479175508726: 74:1 415:1 443:1 obj 1\\
0.3233960730541185: 81:1 404:1 448:1 obj 1\\
0.3233960730541185: 106:1 383:1 439:1 obj 1\\
0.1567480192838613: 108:1 372:1 447:1 obj 1\\
0.05497367738671891: 119:1 365:1 444:1 obj 1\\
0.4414392121941497: 129:1 391:1 407:1 obj 1\\
0.3572981504559976: 171:1 312:1 440:1 obj 1\\
0.6212806948614529: 182:1 324:1 416:1 obj 1\\
0.4818739283981393: 186:1 297:1 437:1 obj 1\\
0.148662592093498: 206:1 348:1 366:1 obj 1\\
0.2360207578826172: 210:1 291:1 420:1 obj 1\\
0.5538094707370367: 227:1 342:1 348:1 obj 1\\
0.8044023252611157: 229:1 265:1 427:1 obj 1\\
0.6036307531580946: 233:1 239:1 453:1 obj 1\\
0.0614329528572104: 234:1 247:1 445:1 obj 1\\
0.2947689130106043: 259:1 306:1 349:1 obj 1\\
0.4396570273628342: 278:1 281:1 350:1 obj 1\\
0.06437015046800548: 279:1 295:1 334:1 obj 1\\
0.5183375681425268: 301:2 312:1 obj 1\\



